115
0 112 36 62 109 75 1 107 35 101 
12 16 80 72 108 41 18 25 51 68 
46 24 40 60 86 71 8 64 89 29 
15 61 83 106 20 95 78 81 48 49 
2 102 50 22 47 66 94 7 79 97 
84 91 57 114 27 88 14 30 56 59 
96 53 63 43 67 5 32 19 111 54 
85 3 52 74 21 92 44 98 4 34 
26 103 13 90 11 105 87 104 37 39 
38 70 76 45 9 110 65 10 113 55 
99 73 23 77 33 17 82 100 69 28 
93 42 31 58 6 
